p cnf 10 30
v 29 30 15 26 8 2 13 3 18 25
-9 3 -1 0
10 2 9 0
-6 -7 -3 0
-1 -6 4 0
2 4 -9 0
5 4 -7 0
-7 4 -3 0
5 -10 -8 0
2 -3 -5 0
-7 5 -4 0
3 -7 -2 0
-4 1 9 0
3 -5 9 0
-2 -3 -8 0
-6 9 3 0
-6 -4 7 0
3 -7 9 0
9 -2 -3 0
-7 2 10 0
-10 5 -8 0
-6 -7 -4 0
-1 9 -7 0
4 3 -10 0
10 2 -9 0
4 -10 -6 0
-6 -4 -9 0
-10 -3 -5 0
-1 3 7 0
10 4 -3 0
2 1 7 0

